N = 15;
M = 27;
Edge_Start = [1, 1, 1, 1, 1, 1, 1, 1, 2, 2, 2, 2, 2, 2, 2, 3, 3, 3, 3, 3, 3, 4, 4, 5, 5, 6, 6];
Edge_End = [2, 3, 4, 5, 7, 8, 9, 10, 3, 4, 6, 7, 11, 12, 13, 5, 6, 8, 11, 14, 15, 9, 12, 10, 14, 13, 15];
L = [2, 3, 2, 3, 5, 5, 2, 4, 5, 4, 4, 5, 3, 2, 2, 2, 2, 5, 2, 5, 2, 2, 4, 2, 3, 2, 2];
T = [2, 2, 2, 5, 9, 9, 7, 5, 7, 6, 4, 9, 3, 5, 1, 4, 6, 5, 4, 3, 5, 1, 9, 0, 2, 7, 0];
Lower_Bound = [5, 1, 3, 5, 3, 1, 4, 3, 5, 3, 0, 3, 5, 0, 1];
Upper_Bound = [35, 37, 50, 47, 56, 59, 49, 56, 48, 56, 56, 59, 66, 59, 59];
Start = 1;
End = 15;
Time = 122;
